data;
set K:= K1 K2 K3 K4 K5 K6 K7 ;

set F:= F1 F2 ;

set Q:= Q1 Q2 ;

param T:= 45;
param V: 
	K1  K2  K3  K4  K5  K6  K7  :=
Q1	1   1   1   1   0   0   0   
Q2	0   0   0   0   1   1   1   
; # if resorce k is of type q

param TF:= 
K1 6
K2 6
K3 6
K4 6
K5 12
K6 12
K7 12
; # number of continuous time slots resource can fly

param TR:= 
K1 2
K2 2
K3 2
K4 2
K5 4
K6 4
K7 4
; #  number of continuous time slots resource k needs to rest between flights

param P:= 
K1 36
K2 36
K3 36
K4 36
K5 36
K6 36
K7 36
; #  number of continuous time slots a pilot can be present including rest times for resource k 

param N:= 
K1 4
K2 4
K3 4
K4 4
K5 2
K6 2
K7 2
; # max number of flights resource k can fly in the total time period

param A: 
	K1  K2  K3  K4  K5  K6  K7  :=
1	1   1   1   1   1   1   1   
2	1   1   1   1   1   1   1   
3	1   1   1   1   1   1   1   
4	1   1   1   1   1   1   1   
5	1   1   1   1   1   1   1   
6	1   1   1   1   1   1   1   
7	1   1   1   1   1   1   1   
8	1   1   1   1   1   1   1   
9	1   1   1   1   1   1   1   
10	1   1   1   1   1   1   1   
11	1   1   1   1   1   1   1   
12	1   1   1   1   1   1   1   
13	1   1   1   1   1   1   1   
14	1   1   1   1   1   1   1   
15	1   1   1   1   1   1   1   
16	1   1   1   1   1   1   1   
17	1   1   1   1   1   1   1   
18	1   1   1   1   1   1   1   
19	1   1   1   1   1   1   1   
20	1   1   1   1   1   1   1   
21	1   1   1   1   1   1   1   
22	1   1   1   1   1   1   1   
23	1   1   1   1   1   1   1   
24	1   1   1   1   1   1   1   
25	1   1   1   1   1   1   1   
26	1   1   1   1   1   1   1   
27	1   1   1   1   1   1   1   
28	1   1   1   1   1   1   1   
29	1   1   1   1   1   1   1   
30	1   1   1   1   1   1   1   
31	1   1   1   1   1   1   1   
32	1   1   1   1   1   1   1   
33	1   1   1   1   1   1   1   
34	1   1   1   1   1   1   1   
35	1   1   1   1   1   1   1   
36	1   1   1   1   1   1   1   
37	1   1   1   1   1   1   1   
38	1   1   1   1   1   1   1   
39	1   1   1   1   1   1   1   
40	1   1   1   1   1   1   1   
41	1   1   1   1   1   1   1   
42	1   1   1   1   1   1   1   
43	1   1   1   1   1   1   1   
44	1   1   1   1   1   1   1   
45	1   1   1   1   1   1   1   
; # availability of resorce k in time slot t

param B: 
	F1  F2  :=
Q1	0   0   
Q2	0   0   
; # if front f requires resources of type q

param U: 
	F1  F2  :=
K1	0   0   
K2	0   0   
K3	0   0   
K4	0   0   
K5	0   0   
K6	2   2   
K7	0   0   
; # transit time of resource

param C:= 
K1 900
K2 900
K3 1500
K4 4500
K5 5500
K6 5500
K7 5500
; #  water capacity of resource k

param S:= 
F1 8
F2 8
; # max number of resources that can fly at front f in the same time slot

param D:= 

[*,*,F1 ]:  K1    K2    K3    K4    K5    K6    K7    :=
1           1.44  1.44  1.44  1.14  0.86  0.86  0.86  
2           1.44  1.44  1.44  1.14  0.86  0.86  0.86  
3           1.44  1.44  1.44  1.14  0.86  0.86  0.86  
4           1.44  1.44  1.44  1.14  0.86  0.86  0.86  
5           1.44  1.44  1.44  1.14  0.86  0.86  0.86  
6           1.44  1.44  1.44  1.14  0.86  0.86  0.86  
7           1.44  1.44  1.44  1.14  0.86  0.86  0.86  
8           1.44  1.44  1.44  1.14  0.86  0.86  0.86  
9           1.44  1.44  1.44  1.14  0.86  0.86  0.86  
10          1.44  1.44  1.44  1.14  0.86  0.86  0.86  
11          1.44  1.44  1.44  1.14  0.86  0.86  0.86  
12          1.44  1.44  1.44  1.14  0.86  0.86  0.86  
13          1.44  1.44  1.44  1.14  0.86  0.86  0.86  
14          1.44  1.44  1.44  1.14  0.86  0.86  0.86  
15          1.44  1.44  1.44  1.14  0.86  0.86  0.86  
16          1.44  1.44  1.44  1.14  0.86  0.86  0.86  
17          1.44  1.44  1.44  1.14  0.86  0.86  0.86  
18          1.44  1.44  1.44  1.14  0.86  0.86  0.86  
19          1.44  1.44  1.44  1.14  0.86  0.86  0.86  
20          1.44  1.44  1.44  1.14  0.86  0.86  0.86  
21          1.44  1.44  1.44  1.14  0.86  0.86  0.86  
22          1.44  1.44  1.44  1.14  0.86  0.86  0.86  
23          1.44  1.44  1.44  1.14  0.86  0.86  0.86  
24          1.44  1.44  1.44  1.14  0.86  0.86  0.86  
25          1.36  1.36  1.36  1.09  0.82  0.82  0.82  
26          1.36  1.36  1.36  1.09  0.82  0.82  0.82  
27          1.36  1.36  1.36  1.09  0.82  0.82  0.82  
28          1.36  1.36  1.36  1.09  0.82  0.82  0.82  
29          1.36  1.36  1.36  1.09  0.82  0.82  0.82  
30          1.36  1.36  1.36  1.09  0.82  0.82  0.82  
31          1.36  1.36  1.36  1.09  0.82  0.82  0.82  
32          1.36  1.36  1.36  1.09  0.82  0.82  0.82  
33          1.36  1.36  1.36  1.09  0.82  0.82  0.82  
34          1.44  1.44  1.44  1.14  0.86  0.86  0.86  
35          1.44  1.44  1.44  1.14  0.86  0.86  0.86  
36          1.44  1.44  1.44  1.14  0.86  0.86  0.86  
37          1.44  1.44  1.44  1.14  0.86  0.86  0.86  
38          1.44  1.44  1.44  1.14  0.86  0.86  0.86  
39          1.44  1.44  1.44  1.14  0.86  0.86  0.86  
40          1.44  1.44  1.44  1.14  0.86  0.86  0.86  
41          1.44  1.44  1.44  1.14  0.86  0.86  0.86  
42          1.44  1.44  1.44  1.14  0.86  0.86  0.86  
43          1.44  1.44  1.44  1.14  0.86  0.86  0.86  
44          1.44  1.44  1.44  1.14  0.86  0.86  0.86  
45          1.44  1.44  1.44  1.14  0.86  0.86  0.86  

[*,*,F2 ]:  K1    K2    K3    K4    K5    K6    K7    :=
1           1.85  1.85  1.85  1.48  1.11  1.11  1.11  
2           1.85  1.85  1.85  1.48  1.11  1.11  1.11  
3           1.85  1.85  1.85  1.48  1.11  1.11  1.11  
4           1.85  1.85  1.85  1.48  1.11  1.11  1.11  
5           1.85  1.85  1.85  1.48  1.11  1.11  1.11  
6           1.85  1.85  1.85  1.48  1.11  1.11  1.11  
7           1.85  1.85  1.85  1.48  1.11  1.11  1.11  
8           1.85  1.85  1.85  1.48  1.11  1.11  1.11  
9           1.85  1.85  1.85  1.48  1.11  1.11  1.11  
10          1.85  1.85  1.85  1.48  1.11  1.11  1.11  
11          1.85  1.85  1.85  1.48  1.11  1.11  1.11  
12          1.85  1.85  1.85  1.48  1.11  1.11  1.11  
13          1.85  1.85  1.85  1.48  1.11  1.11  1.11  
14          1.85  1.85  1.85  1.48  1.11  1.11  1.11  
15          1.85  1.85  1.85  1.48  1.11  1.11  1.11  
16          1.85  1.85  1.85  1.48  1.11  1.11  1.11  
17          1.85  1.85  1.85  1.48  1.11  1.11  1.11  
18          1.85  1.85  1.85  1.48  1.11  1.11  1.11  
19          1.85  1.85  1.85  1.48  1.11  1.11  1.11  
20          1.85  1.85  1.85  1.48  1.11  1.11  1.11  
21          1.85  1.85  1.85  1.48  1.11  1.11  1.11  
22          1.85  1.85  1.85  1.48  1.11  1.11  1.11  
23          1.85  1.85  1.85  1.48  1.11  1.11  1.11  
24          1.85  1.85  1.85  1.48  1.11  1.11  1.11  
25          1.76  1.76  1.76  1.40  1.05  1.05  1.05  
26          1.76  1.76  1.76  1.40  1.05  1.05  1.05  
27          1.76  1.76  1.76  1.40  1.05  1.05  1.05  
28          1.76  1.76  1.76  1.40  1.05  1.05  1.05  
29          1.76  1.76  1.76  1.40  1.05  1.05  1.05  
30          1.76  1.76  1.76  1.40  1.05  1.05  1.05  
31          1.76  1.76  1.76  1.40  1.05  1.05  1.05  
32          1.76  1.76  1.76  1.40  1.05  1.05  1.05  
33          1.76  1.76  1.76  1.40  1.05  1.05  1.05  
34          1.85  1.85  1.85  1.48  1.11  1.11  1.11  
35          1.85  1.85  1.85  1.48  1.11  1.11  1.11  
36          1.85  1.85  1.85  1.48  1.11  1.11  1.11  
37          1.85  1.85  1.85  1.48  1.11  1.11  1.11  
38          1.85  1.85  1.85  1.48  1.11  1.11  1.11  
39          1.85  1.85  1.85  1.48  1.11  1.11  1.11  
40          1.85  1.85  1.85  1.48  1.11  1.11  1.11  
41          1.85  1.85  1.85  1.48  1.11  1.11  1.11  
42          1.85  1.85  1.85  1.48  1.11  1.11  1.11  
43          1.85  1.85  1.85  1.48  1.11  1.11  1.11  
44          1.85  1.85  1.85  1.48  1.11  1.11  1.11  
45          1.85  1.85  1.85  1.48  1.11  1.11  1.11  
; # downloads resource k can do at front f in time t if intermediate time slot

param E:= 

[*,*,F1 ]:  K1    K2    K3    K4    K5    K6    K7    :=
1           0.11  0.07  0.70  0.05  0.38  0.07  0.15  
2           0.11  0.07  0.70  0.05  0.38  0.07  0.15  
3           0.11  0.07  0.70  0.05  0.38  0.07  0.15  
4           0.11  0.07  0.70  0.05  0.38  0.07  0.15  
5           0.11  0.07  0.70  0.05  0.38  0.07  0.15  
6           0.11  0.07  0.70  0.05  0.38  0.07  0.15  
7           0.11  0.07  0.70  0.05  0.38  0.07  0.15  
8           0.11  0.07  0.70  0.05  0.38  0.07  0.15  
9           0.11  0.07  0.70  0.05  0.38  0.07  0.15  
10          0.11  0.07  0.70  0.05  0.38  0.07  0.15  
11          0.11  0.07  0.70  0.05  0.38  0.07  0.15  
12          0.11  0.07  0.70  0.05  0.38  0.07  0.15  
13          0.11  0.07  0.70  0.05  0.38  0.07  0.15  
14          0.11  0.07  0.70  0.05  0.38  0.07  0.15  
15          0.11  0.07  0.70  0.05  0.38  0.07  0.15  
16          0.11  0.07  0.70  0.05  0.38  0.07  0.15  
17          0.11  0.07  0.70  0.05  0.38  0.07  0.15  
18          0.11  0.07  0.70  0.05  0.38  0.07  0.15  
19          0.11  0.07  0.70  0.05  0.38  0.07  0.15  
20          0.11  0.07  0.70  0.05  0.38  0.07  0.15  
21          0.11  0.07  0.70  0.05  0.38  0.07  0.15  
22          0.11  0.07  0.70  0.05  0.38  0.07  0.15  
23          0.11  0.07  0.70  0.05  0.38  0.07  0.15  
24          0.11  0.07  0.70  0.05  0.38  0.07  0.15  
25          0.11  0.07  0.67  0.04  0.36  0.07  0.15  
26          0.11  0.07  0.67  0.04  0.36  0.07  0.15  
27          0.11  0.07  0.67  0.04  0.36  0.07  0.15  
28          0.11  0.07  0.67  0.04  0.36  0.07  0.15  
29          0.11  0.07  0.67  0.04  0.36  0.07  0.15  
30          0.11  0.07  0.67  0.04  0.36  0.07  0.15  
31          0.11  0.07  0.67  0.04  0.36  0.07  0.15  
32          0.11  0.07  0.67  0.04  0.36  0.07  0.15  
33          0.11  0.07  0.67  0.04  0.36  0.07  0.15  
34          0.11  0.07  0.70  0.05  0.38  0.07  0.15  
35          0.11  0.07  0.70  0.05  0.38  0.07  0.15  
36          0.11  0.07  0.70  0.05  0.38  0.07  0.15  
37          0.11  0.07  0.70  0.05  0.38  0.07  0.15  
38          0.11  0.07  0.70  0.05  0.38  0.07  0.15  
39          0.11  0.07  0.70  0.05  0.38  0.07  0.15  
40          0.11  0.07  0.70  0.05  0.38  0.07  0.15  
41          0.11  0.07  0.70  0.05  0.38  0.07  0.15  
42          0.11  0.07  0.70  0.05  0.38  0.07  0.15  
43          0.11  0.07  0.70  0.05  0.38  0.07  0.15  
44          0.11  0.07  0.70  0.05  0.38  0.07  0.15  
45          0.11  0.07  0.70  0.05  0.38  0.07  0.15  

[*,*,F2 ]:  K1    K2    K3    K4    K5    K6    K7    :=
1           0.17  0.04  0.95  0.04  0.53  0.10  0.19  
2           0.17  0.04  0.95  0.04  0.53  0.10  0.19  
3           0.17  0.04  0.95  0.04  0.53  0.10  0.19  
4           0.17  0.04  0.95  0.04  0.53  0.10  0.19  
5           0.17  0.04  0.95  0.04  0.53  0.10  0.19  
6           0.17  0.04  0.95  0.04  0.53  0.10  0.19  
7           0.17  0.04  0.95  0.04  0.53  0.10  0.19  
8           0.17  0.04  0.95  0.04  0.53  0.10  0.19  
9           0.17  0.04  0.95  0.04  0.53  0.10  0.19  
10          0.17  0.04  0.95  0.04  0.53  0.10  0.19  
11          0.17  0.04  0.95  0.04  0.53  0.10  0.19  
12          0.17  0.04  0.95  0.04  0.53  0.10  0.19  
13          0.17  0.04  0.95  0.04  0.53  0.10  0.19  
14          0.17  0.04  0.95  0.04  0.53  0.10  0.19  
15          0.17  0.04  0.95  0.04  0.53  0.10  0.19  
16          0.17  0.04  0.95  0.04  0.53  0.10  0.19  
17          0.17  0.04  0.95  0.04  0.53  0.10  0.19  
18          0.17  0.04  0.95  0.04  0.53  0.10  0.19  
19          0.17  0.04  0.95  0.04  0.53  0.10  0.19  
20          0.17  0.04  0.95  0.04  0.53  0.10  0.19  
21          0.17  0.04  0.95  0.04  0.53  0.10  0.19  
22          0.17  0.04  0.95  0.04  0.53  0.10  0.19  
23          0.17  0.04  0.95  0.04  0.53  0.10  0.19  
24          0.17  0.04  0.95  0.04  0.53  0.10  0.19  
25          0.16  0.04  0.90  0.04  0.51  0.09  0.18  
26          0.16  0.04  0.90  0.04  0.51  0.09  0.18  
27          0.16  0.04  0.90  0.04  0.51  0.09  0.18  
28          0.16  0.04  0.90  0.04  0.51  0.09  0.18  
29          0.16  0.04  0.90  0.04  0.51  0.09  0.18  
30          0.16  0.04  0.90  0.04  0.51  0.09  0.18  
31          0.16  0.04  0.90  0.04  0.51  0.09  0.18  
32          0.16  0.04  0.90  0.04  0.51  0.09  0.18  
33          0.16  0.04  0.90  0.04  0.51  0.09  0.18  
34          0.17  0.04  0.95  0.04  0.53  0.10  0.19  
35          0.17  0.04  0.95  0.04  0.53  0.10  0.19  
36          0.17  0.04  0.95  0.04  0.53  0.10  0.19  
37          0.17  0.04  0.95  0.04  0.53  0.10  0.19  
38          0.17  0.04  0.95  0.04  0.53  0.10  0.19  
39          0.17  0.04  0.95  0.04  0.53  0.10  0.19  
40          0.17  0.04  0.95  0.04  0.53  0.10  0.19  
41          0.17  0.04  0.95  0.04  0.53  0.10  0.19  
42          0.17  0.04  0.95  0.04  0.53  0.10  0.19  
43          0.17  0.04  0.95  0.04  0.53  0.10  0.19  
44          0.17  0.04  0.95  0.04  0.53  0.10  0.19  
45          0.17  0.04  0.95  0.04  0.53  0.10  0.19  
; # downloads resource k can do at front f in time t if starting or ending flight

param W: 
	F1        F2        :=
1	954.70    954.70    
2	3818.82   3818.82   
3	3818.82   3818.82   
4	3818.82   3818.82   
5	3818.82   3818.82   
6	3818.82   3818.82   
7	3818.82   3818.82   
8	3818.82   3818.82   
9	3818.82   3818.82   
10	3818.82   3818.82   
11	3818.82   3818.82   
12	3818.82   3818.82   
13	3818.82   3818.82   
14	3818.82   3818.82   
15	3818.82   3818.82   
16	3818.82   3818.82   
17	3818.82   3818.82   
18	3818.82   3818.82   
19	1697.25   1697.25   
20	1697.25   1697.25   
21	1697.25   1697.25   
22	1697.25   1697.25   
23	1697.25   1697.25   
24	1697.25   1697.25   
25	1697.25   1697.25   
26	1697.25   1697.25   
27	1697.25   1697.25   
28	1697.25   1697.25   
29	1697.25   1697.25   
30	1697.25   1697.25   
31	1697.25   1697.25   
32	1697.25   1697.25   
33	1697.25   1697.25   
34	1697.25   1697.25   
35	1697.25   1697.25   
36	1697.25   1697.25   
37	1697.25   1697.25   
38	1697.25   1697.25   
39	1697.25   1697.25   
40	1697.25   1697.25   
41	1697.25   1697.25   
42	1697.25   1697.25   
43	1697.25   1697.25   
44	1697.25   1697.25   
45	424.31    424.31    
; # water needed at front f in time slot t

param M := 100000000; 

param a1:= 10000000;

param a2:= 100;

param a3:= 0.0001;
